clingo version 5.6.2
Reading from ...togen_asp_scripts/ijp_expt_cases-22.dl
Solving...
UNSATISFIABLE

Models       : 0
Calls        : 1
Time         : 339.353s (Solving: 337.79s 1st Model: 0.00s Unsat: 337.79s)
CPU Time     : 339.238s
